decision_x1=[0,4];
decision_x2=[0,4];
decision_x3=[0,4];
decision_x4=[0,4];
random_y1=[0,4];
random_y2=[0,4];
constraint_x3_x2=[
0,1,0.47|
0,2,5.3|
0,3,4.1|
0,4,3|
1,0,6|
1,2,0.033|
1,3,9.9|
1,4,9|
2,0,7.8|
2,1,7.2|
2,3,4.6|
2,4,5.1|
3,0,3.1|
3,1,0.61|
3,2,9.2|
3,4,3.8|
4,0,1.7|
4,1,6.6|
4,2,8.5|
4,3,7.8|
];
constraint_x4_x1=[
0,1,8.7|
0,2,0.43|
0,3,2.8|
0,4,5.4|
1,0,4.4|
1,2,1.3|
1,3,7.8|
1,4,0.2|
2,0,3.4|
2,1,5.5|
2,3,3.4|
2,4,4.6|
3,0,2.9|
3,1,6.6|
3,2,5.4|
3,4,9.8|
4,0,2.7|
4,1,8.4|
4,2,2.4|
4,3,6.3|
];
constraint_x4_x2=[
0,1,0.31|
0,2,2.4|
0,3,0.3|
0,4,1.4|
1,0,9.4|
1,2,6.6|
1,3,5.4|
1,4,4.5|
2,0,2.4|
2,1,6.2|
2,3,5.1|
2,4,4.3|
3,0,8.4|
3,1,5.3|
3,2,2.8|
3,4,9.8|
4,0,5.2|
4,1,6.8|
4,2,8.6|
4,3,2.2|
];
constraint_x1_y1=[
0,0,4.7|
0,1,0.66|
0,2,7.3|
0,3,4.3|
0,4,1.8|
1,0,3|
1,1,6.5|
1,2,5.1|
1,3,4.3|
1,4,7.5|
2,0,0.84|
2,1,4.3|
2,2,6.9|
2,3,6.7|
2,4,9.6|
3,0,2.2|
3,1,3.3|
3,2,7.1|
3,3,2.7|
3,4,2|
4,0,9|
4,1,1.8|
4,2,7.5|
4,3,0.9|
4,4,4.4|
];
constraint_x2_y2=[
0,0,2.7|
0,1,9.9|
0,2,2.4|
0,3,9.8|
0,4,9.1|
1,0,9.5|
1,1,1.4|
1,2,0.59|
1,3,7.3|
1,4,3.3|
2,0,5.1|
2,1,2.7|
2,2,5.1|
2,3,0.49|
2,4,7.1|
3,0,3.4|
3,1,3.7|
3,2,6.1|
3,3,6.7|
3,4,4.9|
4,0,8.1|
4,1,3.3|
4,2,6.7|
4,3,6.8|
4,4,6.1|
];
initial_distribution_y1=[0.11,0.35,0.22,0.075,0.24];
initial_distribution_y2=[0.32,0.23,0.089,0.017,0.35];
transition_y1=[
0.16,0.24,0.23,0.19,0.18|
0.27,0.1,0.29,0.27,0.068|
0.19,0.067,0.31,0.17,0.26|
0.11,0.12,0.38,0.021,0.37|
0.2,0.15,0.14,0.24,0.27|
];
transition_y2=[
0.11,0.17,0.11,0.39,0.22|
0.17,0.27,0.2,0.28,0.084|
0.17,0.033,0.22,0.15,0.42|
0.13,0.018,0.01,0.7,0.15|
0.093,0.29,0.11,0.17,0.34|
];
